presolving:
(round 1, fast)       125 del vars, 0 del conss, 0 add conss, 0 chg bounds, 0 chg sides, 0 chg coeffs, 0 upgd conss, 0 impls, 248 clqs
(round 2, exhaustive) 125 del vars, 0 del conss, 0 add conss, 0 chg bounds, 0 chg sides, 0 chg coeffs, 248 upgd conss, 0 impls, 248 clqs
   (1.0s) probing: 51/15252 (0.3%) - 0 fixings, 0 aggregations, 0 implications, 0 bound changes
   (1.0s) probing aborted: 50/50 successive totally useless probings
   Deactivated symmetry handling methods, since SCIP was built without symmetry detector (SYM=none).
presolving (3 rounds: 3 fast, 2 medium, 2 exhaustive):
 125 deleted vars, 0 deleted constraints, 0 added constraints, 0 tightened bounds, 0 added holes, 0 changed sides, 0 changed coefficients
 0 implications, 248 cliques
presolved problem has 15375 variables (15252 bin, 0 int, 0 impl, 123 cont) and 15254 constraints
    248 constraints of type <setppc>
  15006 constraints of type <linear>
Presolving Time: 1.00

 time | node  | left  |LP iter|LP it/n|mem/heur|mdpt |vars |cons |rows |cuts |sepa|confs|strbr|  dualbound   | primalbound  |  gap   | compl. 
p 2.0s|     1 |     0 |   128 |     - | vbounds|   0 |  15k|  15k|  15k|   0 |  0 |   5 |   0 | 0.000000e+00 | 9.981949e+04 |    Inf | unknown
  2.0s|     1 |     0 |   466 |     - |   171M |   0 |  15k|  15k|  15k|   0 |  0 |   5 |   0 | 3.908844e+04 | 9.981949e+04 | 155.37%| unknown
  2.0s|     1 |     0 |   584 |     - |   176M |   0 |  15k|  15k|  15k|  90 |  1 |   5 |   0 | 4.521099e+04 | 9.981949e+04 | 120.79%| unknown
  3.0s|     1 |     0 |   682 |     - |   178M |   0 |  15k|  15k|  15k| 152 |  2 |   5 |   0 | 4.795891e+04 | 9.981949e+04 | 108.14%| unknown
  3.0s|     1 |     0 |   706 |     - |   181M |   0 |  15k|  15k|  15k| 166 |  3 |   5 |   0 | 4.882638e+04 | 9.981949e+04 | 104.44%| unknown
  3.0s|     1 |     0 |   751 |     - |   182M |   0 |  15k|  15k|  15k| 185 |  5 |   5 |   0 | 4.892308e+04 | 9.981949e+04 | 104.03%| unknown
  4.0s|     1 |     0 |   787 |     - |   186M |   0 |  15k|  15k|  15k| 201 |  6 |   5 |   0 | 4.945494e+04 | 9.981949e+04 | 101.84%| unknown
  4.0s|     1 |     0 |   801 |     - |   188M |   0 |  15k|  15k|  15k| 209 |  7 |   5 |   0 | 4.969608e+04 | 9.981949e+04 | 100.86%| unknown
  4.0s|     1 |     0 |   833 |     - |   190M |   0 |  15k|  15k|  15k| 219 |  8 |   5 |   0 | 4.985538e+04 | 9.981949e+04 | 100.22%| unknown
  5.0s|     1 |     0 |   858 |     - |   192M |   0 |  15k|  15k|  15k| 229 |  9 |   5 |   0 | 4.993399e+04 | 9.981949e+04 |  99.90%| unknown
  5.0s|     1 |     0 |   875 |     - |   195M |   0 |  15k|  15k|  15k| 234 | 10 |   5 |   0 | 4.993399e+04 | 9.981949e+04 |  99.90%| unknown
  6.0s|     1 |     0 |   911 |     - |   196M |   0 |  15k|  15k|  15k| 245 | 11 |   5 |   0 | 4.993648e+04 | 9.981949e+04 |  99.89%| unknown
  6.0s|     1 |     0 |   947 |     - |   199M |   0 |  15k|  15k|  15k| 253 | 12 |   5 |   0 | 5.000382e+04 | 9.981949e+04 |  99.62%| unknown
  6.0s|     1 |     0 |   973 |     - |   200M |   0 |  15k|  15k|  15k| 270 | 13 |   5 |   0 | 5.003314e+04 | 9.981949e+04 |  99.51%| unknown
  7.0s|     1 |     0 |   987 |     - |   202M |   0 |  15k|  15k|  15k| 283 | 14 |   5 |   0 | 5.003314e+04 | 9.981949e+04 |  99.51%| unknown
 time | node  | left  |LP iter|LP it/n|mem/heur|mdpt |vars |cons |rows |cuts |sepa|confs|strbr|  dualbound   | primalbound  |  gap   | compl. 
  7.0s|     1 |     0 |  1008 |     - |   203M |   0 |  15k|  15k|  15k| 293 | 15 |   5 |   0 | 5.007347e+04 | 9.981949e+04 |  99.35%| unknown
  8.0s|     1 |     0 |  1033 |     - |   205M |   0 |  15k|  15k|  15k| 309 | 16 |   5 |   0 | 5.027781e+04 | 9.981949e+04 |  98.54%| unknown
  8.0s|     1 |     0 |  1063 |     - |   206M |   0 |  15k|  15k|  15k| 331 | 17 |   5 |   0 | 5.034101e+04 | 9.981949e+04 |  98.29%| unknown
  8.0s|     1 |     0 |  1083 |     - |   206M |   0 |  15k|  15k|  15k| 335 | 18 |   5 |   0 | 5.034101e+04 | 9.981949e+04 |  98.29%| unknown
  8.0s|     1 |     0 |  1090 |     - |   208M |   0 |  15k|  15k|  15k| 338 | 19 |   5 |   0 | 5.034101e+04 | 9.981949e+04 |  98.29%| unknown
  9.0s|     1 |     0 |  1095 |     - |   209M |   0 |  15k|  15k|  15k| 339 | 20 |   5 |   0 | 5.034101e+04 | 9.981949e+04 |  98.29%| unknown
  9.0s|     1 |     0 |  1117 |     - |   211M |   0 |  15k|  15k|  15k| 348 | 21 |   5 |   0 | 5.034101e+04 | 9.981949e+04 |  98.29%| unknown
  9.0s|     1 |     0 |  1131 |     - |   211M |   0 |  15k|  15k|  15k| 361 | 22 |   5 |   0 | 5.034101e+04 | 9.981949e+04 |  98.29%| unknown
 10.0s|     1 |     0 |  1144 |     - |   211M |   0 |  15k|  15k|  15k| 369 | 23 |   5 |   0 | 5.034101e+04 | 9.981949e+04 |  98.29%| unknown
 10.0s|     1 |     0 |  1156 |     - |   211M |   0 |  15k|  15k|  15k| 379 | 24 |   5 |   0 | 5.034101e+04 | 9.981949e+04 |  98.29%| unknown
 10.0s|     1 |     0 |  1160 |     - |   211M |   0 |  15k|  15k|  15k| 382 | 25 |   5 |   0 | 5.034101e+04 | 9.981949e+04 |  98.29%| unknown
 11.0s|     1 |     0 |  1177 |     - |   211M |   0 |  15k|  15k|  15k| 392 | 26 |   5 |   0 | 5.034101e+04 | 9.981949e+04 |  98.29%| unknown
 11.0s|     1 |     0 |  1185 |     - |   211M |   0 |  15k|  15k|  15k| 398 | 27 |   5 |   0 | 5.034101e+04 | 9.981949e+04 |  98.29%| unknown
L29.0s|     1 |     0 |  5305 |     - |    alns|   0 |  15k|  15k|  15k| 398 | 28 |   7 |   0 | 5.034101e+04 | 9.852769e+04 |  95.72%| unknown
 29.0s|     1 |     0 |  5305 |     - |   214M |   0 |  15k|  15k|  15k| 398 | 28 |   7 |   0 | 5.034101e+04 | 9.852769e+04 |  95.72%| unknown
 time | node  | left  |LP iter|LP it/n|mem/heur|mdpt |vars |cons |rows |cuts |sepa|confs|strbr|  dualbound   | primalbound  |  gap   | compl. 
 29.0s|     1 |     0 |  5315 |     - |   214M |   0 |  15k|  15k|  15k| 405 | 29 |   7 |   0 | 5.034101e+04 | 9.852769e+04 |  95.72%| unknown
 37.0s|     1 |     2 |  5315 |     - |   214M |   0 |  15k|  15k|  15k| 405 | 30 |   7 |  34 | 5.049701e+04 | 9.852769e+04 |  95.12%| unknown
  476s|   100 |    99 | 11538 | 105.8 |   268M |  22 |  15k|  15k|  15k| 974 |  2 |  90 |1611 | 5.057321e+04 | 9.852769e+04 |  94.82%| unknown

SCIP Status        : solving was interrupted [time limit reached]
Solving Time (sec) : 600.00
Solving Nodes      : 153
Primal Bound       : +9.85276869963540e+04 (2 solutions)
Dual Bound         : +5.05732107988225e+04
Gap                : 94.82 %
Trying to solve problem with MTZ Solver Method...
Starting Solver, time limit setted to 10 minutes
Route:  [[0, 1], [1, 2], [2, 3], [3, 4], [4, 5], [5, 6], [6, 7], [7, 8], [8, 9], [9, 10], [10, 11], [11, 12], [12, 13], [13, 14], [14, 15], [15, 16], [16, 17], [17, 18], [18, 19], [19, 20], [20, 21], [21, 22], [22, 23], [23, 24], [24, 25], [25, 26], [26, 27], [27, 28], [28, 29], [29, 30], [30, 31], [31, 32], [32, 33], [33, 34], [34, 35], [35, 36], [36, 37], [37, 38], [38, 39], [39, 40], [40, 41], [41, 42], [42, 43], [43, 44], [44, 45], [45, 46], [46, 47], [47, 48], [48, 49], [49, 50], [50, 51], [51, 52], [52, 53], [53, 54], [54, 55], [55, 56], [56, 57], [57, 58], [58, 60], [59, 61], [60, 59], [61, 62], [62, 63], [63, 64], [64, 65], [65, 66], [66, 67], [67, 68], [68, 69], [69, 70], [70, 71], [71, 72], [72, 73], [73, 74], [74, 75], [75, 76], [76, 77], [77, 78], [78, 79], [79, 80], [80, 81], [81, 82], [82, 83], [83, 84], [84, 85], [85, 86], [86, 87], [87, 88], [88, 89], [89, 90], [90, 91], [91, 92], [92, 93], [93, 94], [94, 95], [95, 96], [96, 97], [97, 98], [98, 99], [99, 100], [100, 101], [101, 102], [102, 103], [103, 104], [104, 105], [105, 106], [106, 107], [107, 108], [108, 109], [109, 110], [110, 111], [111, 112], [112, 113], [113, 114], [114, 115], [115, 116], [116, 117], [117, 118], [118, 119], [119, 120], [120, 121], [121, 122], [122, 123], [123, 0]]
An Otimal Solution was found, yay!
Objective value: 98527.7
Problem solved in 17948 iterations
Problem solved in 153 nodes
Final Route Configuration succesfully created at:
data/routes/pr124.csv
